instances/knapsack/discrete_knapsack_uncertainty/knapsack_50_19.lp
\ Model knapsack_50_19
\ LP format - for model browsing. Use MPS format to capture full model detail.
\ Signature: 0xe2d4f45d0ac270ee
Minimize
  - 45 x[0] - 62 x[1] - 15 x[2] - 55 x[3] - 89 x[4] - 48 x[5] - 33 x[6]
   - 55 x[7] - 30 x[8] - 18 x[9] - 30 x[10] - 54 x[11] - 74 x[12]
   - 61 x[13] - 10 x[14] - 91 x[15] - 85 x[16] - 65 x[17] - 78 x[18]
   - 61 x[19] - 37 x[20] - 62 x[21] - 23 x[22] - 35 x[23] - 28 x[24]
   - 2 x[25] - 15 x[26] - 3 x[27] - 13 x[28] - 64 x[29] - 80 x[30]
   - 39 x[31] - 63 x[32] - 78 x[33] - 35 x[34] - 20 x[35] - 64 x[36]
   - 54 x[37] - 14 x[38] - 67 x[39] - 83 x[40] - 81 x[41] - 49 x[42]
   - 30 x[43] - 82 x[44] - 58 x[45] - 40 x[46] - 72 x[47] - 72 x[48]
   - 9 x[49]
Subject To
 primal_upper: 47 x[0] + 43 x[1] + 93 x[2] + 38 x[3] + 35 x[4] + 61 x[5]
   + 60 x[6] + 27 x[7] + 48 x[8] + 29 x[9] + 31 x[10] + 2 x[11] + 63 x[12]
   + 79 x[13] + 16 x[14] + 92 x[15] + 88 x[16] + 79 x[17] + 84 x[18]
   + 33 x[19] + 96 x[20] + 15 x[21] + 75 x[22] + 58 x[23] + 60 x[24]
   + 71 x[25] + 97 x[26] + 11 x[27] + 73 x[28] + 2 x[29] + 17 x[30]
   + 51 x[31] + 23 x[32] + 60 x[33] + 7 x[34] + 100 x[35] + 15 x[36]
   + 100 x[37] + 23 x[38] + 90 x[39] + 22 x[40] + 41 x[41] + 13 x[42]
   + 57 x[43] + 2 x[44] + 6 x[45] + 85 x[46] + 73 x[47] + 82 x[48]
   + 47 x[49] + 4.7 r[0] + 4.3 r[1] + 9.3 r[2] + 3.8 r[3] + 3.5 r[4]
   + 6.1 r[5] + 6 r[6] + 2.7 r[7] + 4.8 r[8] + 2.9 r[9] + 3.1 r[10]
   + 0.2 r[11] + 6.3 r[12] + 7.9 r[13] + 1.6 r[14] + 9.2 r[15] + 8.8 r[16]
   + 7.9 r[17] + 8.4 r[18] + 3.3 r[19] + 9.6 r[20] + 1.5 r[21] + 7.5 r[22]
   + 5.8 r[23] + 6 r[24] + 7.1 r[25] + 9.7 r[26] + 1.1 r[27] + 7.3 r[28]
   + 0.2 r[29] + 1.7 r[30] + 5.1 r[31] + 2.3 r[32] + 6 r[33] + 0.7 r[34]
   + 10 r[35] + 1.5 r[36] + 10 r[37] + 2.3 r[38] + 9 r[39] + 2.2 r[40]
   + 4.1 r[41] + 1.3 r[42] + 5.7 r[43] + 0.2 r[44] + 0.6 r[45] + 8.5 r[46]
   + 7.3 r[47] + 8.2 r[48] + 4.7 r[49] <= 240
 primal_lower: 5.818509723140746 x[0] + 5.604815526997811 x[1]
   + 3.358703202839997 x[2] + 2.279095711775111 x[3]
   + 5.635476109764223 x[4] + 3.96003297158036 x[5]
   + 4.534144088927934 x[6] + 2.210433999220527 x[7]
   + 1.307418942362951 x[8] + 0.0113264772671923 x[9]
   + 1.556127940017219 x[10] + 3.076630432689381 x[11]
   + 1.975384377244426 x[12] + 5.692802927748523 x[13]
   + 0.7511192778197965 x[14] + 3.693565082568491 x[15]
   + 3.082148563760789 x[16] + 1.585501854218974 x[17]
   + 2.814283305653612 x[18] + 4.86854308367427 x[19]
   + 2.66386934468623 x[20] + 5.234363183799726 x[21]
   + 4.350770894710141 x[22] + 0.0287325631865557 x[23]
   + 1.157507098038816 x[24] + 3.137548774116802 x[25]
   + 1.346916774199202 x[26] + 4.822950128599883 x[27]
   + 1.060119366358643 x[28] + 4.11389882702587 x[29]
   + 2.861274028549702 x[30] + 0.7842512540562339 x[31]
   + 4.975821317521694 x[32] + 1.747465538105437 x[33]
   + 1.144374519356108 x[34] + 2.05302979682667 x[35]
   + 0.0854032057236726 x[36] + 1.360433801902996 x[37]
   + 1.996899828711825 x[38] + 0.6252314788220664 x[39]
   + 4.596879851566952 x[40] + 3.369574841652363 x[41]
   + 4.646961757323416 x[42] + 5.267036590428898 x[43]
   + 2.269230290790461 x[44] + 2.932396273003551 x[45]
   + 3.335059314506967 x[46] + 3.443940287275773 x[47]
   + 3.896470649295458 x[48] + 2.889965169457171 x[49] + 42 u[0] + 71 u[1]
   + 45 u[2] + 62 u[3] + 83 u[4] + 76 u[5] + 60 u[6] + 46 u[7] + 64 u[8]
   + 81 u[9] + 66 u[10] + 74 u[11] + 47 u[12] + 47 u[13] + 91 u[14]
   + 71 u[15] + 64 u[16] + 11 u[17] + 72 u[18] + 5 u[19] + 40 u[20]
   + 62 u[21] + 31 u[22] + 97 u[23] + 43 u[24] + 87 u[25] + 77 u[26]
   + 38 u[27] + 76 u[28] + 94 u[29] + 32 u[30] + 82 u[31] + 66 u[32]
   + 4 u[33] + 79 u[34] + 88 u[35] + 99 u[36] + 79 u[37] + 11 u[38]
   + 13 u[39] + 86 u[40] + 68 u[41] + 65 u[42] + 100 u[43] + 70 u[44]
   + 69 u[45] + 48 u[46] + 72 u[47] + 46 u[48] + 95 u[49] <= 3707
 mccormick1[0]: - u[0] + r[0] <= 0
 mccormick1[1]: - u[1] + r[1] <= 0
 mccormick1[2]: - u[2] + r[2] <= 0
 mccormick1[3]: - u[3] + r[3] <= 0
 mccormick1[4]: - u[4] + r[4] <= 0
 mccormick1[5]: - u[5] + r[5] <= 0
 mccormick1[6]: - u[6] + r[6] <= 0
 mccormick1[7]: - u[7] + r[7] <= 0
 mccormick1[8]: - u[8] + r[8] <= 0
 mccormick1[9]: - u[9] + r[9] <= 0
 mccormick1[10]: - u[10] + r[10] <= 0
 mccormick1[11]: - u[11] + r[11] <= 0
 mccormick1[12]: - u[12] + r[12] <= 0
 mccormick1[13]: - u[13] + r[13] <= 0
 mccormick1[14]: - u[14] + r[14] <= 0
 mccormick1[15]: - u[15] + r[15] <= 0
 mccormick1[16]: - u[16] + r[16] <= 0
 mccormick1[17]: - u[17] + r[17] <= 0
 mccormick1[18]: - u[18] + r[18] <= 0
 mccormick1[19]: - u[19] + r[19] <= 0
 mccormick1[20]: - u[20] + r[20] <= 0
 mccormick1[21]: - u[21] + r[21] <= 0
 mccormick1[22]: - u[22] + r[22] <= 0
 mccormick1[23]: - u[23] + r[23] <= 0
 mccormick1[24]: - u[24] + r[24] <= 0
 mccormick1[25]: - u[25] + r[25] <= 0
 mccormick1[26]: - u[26] + r[26] <= 0
 mccormick1[27]: - u[27] + r[27] <= 0
 mccormick1[28]: - u[28] + r[28] <= 0
 mccormick1[29]: - u[29] + r[29] <= 0
 mccormick1[30]: - u[30] + r[30] <= 0
 mccormick1[31]: - u[31] + r[31] <= 0
 mccormick1[32]: - u[32] + r[32] <= 0
 mccormick1[33]: - u[33] + r[33] <= 0
 mccormick1[34]: - u[34] + r[34] <= 0
 mccormick1[35]: - u[35] + r[35] <= 0
 mccormick1[36]: - u[36] + r[36] <= 0
 mccormick1[37]: - u[37] + r[37] <= 0
 mccormick1[38]: - u[38] + r[38] <= 0
 mccormick1[39]: - u[39] + r[39] <= 0
 mccormick1[40]: - u[40] + r[40] <= 0
 mccormick1[41]: - u[41] + r[41] <= 0
 mccormick1[42]: - u[42] + r[42] <= 0
 mccormick1[43]: - u[43] + r[43] <= 0
 mccormick1[44]: - u[44] + r[44] <= 0
 mccormick1[45]: - u[45] + r[45] <= 0
 mccormick1[46]: - u[46] + r[46] <= 0
 mccormick1[47]: - u[47] + r[47] <= 0
 mccormick1[48]: - u[48] + r[48] <= 0
 mccormick1[49]: - u[49] + r[49] <= 0
 mccormick2[0]: - x[0] + r[0] <= 0
 mccormick2[1]: - x[1] + r[1] <= 0
 mccormick2[2]: - x[2] + r[2] <= 0
 mccormick2[3]: - x[3] + r[3] <= 0
 mccormick2[4]: - x[4] + r[4] <= 0
 mccormick2[5]: - x[5] + r[5] <= 0
 mccormick2[6]: - x[6] + r[6] <= 0
 mccormick2[7]: - x[7] + r[7] <= 0
 mccormick2[8]: - x[8] + r[8] <= 0
 mccormick2[9]: - x[9] + r[9] <= 0
 mccormick2[10]: - x[10] + r[10] <= 0
 mccormick2[11]: - x[11] + r[11] <= 0
 mccormick2[12]: - x[12] + r[12] <= 0
 mccormick2[13]: - x[13] + r[13] <= 0
 mccormick2[14]: - x[14] + r[14] <= 0
 mccormick2[15]: - x[15] + r[15] <= 0
 mccormick2[16]: - x[16] + r[16] <= 0
 mccormick2[17]: - x[17] + r[17] <= 0
 mccormick2[18]: - x[18] + r[18] <= 0
 mccormick2[19]: - x[19] + r[19] <= 0
 mccormick2[20]: - x[20] + r[20] <= 0
 mccormick2[21]: - x[21] + r[21] <= 0
 mccormick2[22]: - x[22] + r[22] <= 0
 mccormick2[23]: - x[23] + r[23] <= 0
 mccormick2[24]: - x[24] + r[24] <= 0
 mccormick2[25]: - x[25] + r[25] <= 0
 mccormick2[26]: - x[26] + r[26] <= 0
 mccormick2[27]: - x[27] + r[27] <= 0
 mccormick2[28]: - x[28] + r[28] <= 0
 mccormick2[29]: - x[29] + r[29] <= 0
 mccormick2[30]: - x[30] + r[30] <= 0
 mccormick2[31]: - x[31] + r[31] <= 0
 mccormick2[32]: - x[32] + r[32] <= 0
 mccormick2[33]: - x[33] + r[33] <= 0
 mccormick2[34]: - x[34] + r[34] <= 0
 mccormick2[35]: - x[35] + r[35] <= 0
 mccormick2[36]: - x[36] + r[36] <= 0
 mccormick2[37]: - x[37] + r[37] <= 0
 mccormick2[38]: - x[38] + r[38] <= 0
 mccormick2[39]: - x[39] + r[39] <= 0
 mccormick2[40]: - x[40] + r[40] <= 0
 mccormick2[41]: - x[41] + r[41] <= 0
 mccormick2[42]: - x[42] + r[42] <= 0
 mccormick2[43]: - x[43] + r[43] <= 0
 mccormick2[44]: - x[44] + r[44] <= 0
 mccormick2[45]: - x[45] + r[45] <= 0
 mccormick2[46]: - x[46] + r[46] <= 0
 mccormick2[47]: - x[47] + r[47] <= 0
 mccormick2[48]: - x[48] + r[48] <= 0
 mccormick2[49]: - x[49] + r[49] <= 0
 mccormick3[0]: x[0] + u[0] - r[0] <= 1
 mccormick3[1]: x[1] + u[1] - r[1] <= 1
 mccormick3[2]: x[2] + u[2] - r[2] <= 1
 mccormick3[3]: x[3] + u[3] - r[3] <= 1
 mccormick3[4]: x[4] + u[4] - r[4] <= 1
 mccormick3[5]: x[5] + u[5] - r[5] <= 1
 mccormick3[6]: x[6] + u[6] - r[6] <= 1
 mccormick3[7]: x[7] + u[7] - r[7] <= 1
 mccormick3[8]: x[8] + u[8] - r[8] <= 1
 mccormick3[9]: x[9] + u[9] - r[9] <= 1
 mccormick3[10]: x[10] + u[10] - r[10] <= 1
 mccormick3[11]: x[11] + u[11] - r[11] <= 1
 mccormick3[12]: x[12] + u[12] - r[12] <= 1
 mccormick3[13]: x[13] + u[13] - r[13] <= 1
 mccormick3[14]: x[14] + u[14] - r[14] <= 1
 mccormick3[15]: x[15] + u[15] - r[15] <= 1
 mccormick3[16]: x[16] + u[16] - r[16] <= 1
 mccormick3[17]: x[17] + u[17] - r[17] <= 1
 mccormick3[18]: x[18] + u[18] - r[18] <= 1
 mccormick3[19]: x[19] + u[19] - r[19] <= 1
 mccormick3[20]: x[20] + u[20] - r[20] <= 1
 mccormick3[21]: x[21] + u[21] - r[21] <= 1
 mccormick3[22]: x[22] + u[22] - r[22] <= 1
 mccormick3[23]: x[23] + u[23] - r[23] <= 1
 mccormick3[24]: x[24] + u[24] - r[24] <= 1
 mccormick3[25]: x[25] + u[25] - r[25] <= 1
 mccormick3[26]: x[26] + u[26] - r[26] <= 1
 mccormick3[27]: x[27] + u[27] - r[27] <= 1
 mccormick3[28]: x[28] + u[28] - r[28] <= 1
 mccormick3[29]: x[29] + u[29] - r[29] <= 1
 mccormick3[30]: x[30] + u[30] - r[30] <= 1
 mccormick3[31]: x[31] + u[31] - r[31] <= 1
 mccormick3[32]: x[32] + u[32] - r[32] <= 1
 mccormick3[33]: x[33] + u[33] - r[33] <= 1
 mccormick3[34]: x[34] + u[34] - r[34] <= 1
 mccormick3[35]: x[35] + u[35] - r[35] <= 1
 mccormick3[36]: x[36] + u[36] - r[36] <= 1
 mccormick3[37]: x[37] + u[37] - r[37] <= 1
 mccormick3[38]: x[38] + u[38] - r[38] <= 1
 mccormick3[39]: x[39] + u[39] - r[39] <= 1
 mccormick3[40]: x[40] + u[40] - r[40] <= 1
 mccormick3[41]: x[41] + u[41] - r[41] <= 1
 mccormick3[42]: x[42] + u[42] - r[42] <= 1
 mccormick3[43]: x[43] + u[43] - r[43] <= 1
 mccormick3[44]: x[44] + u[44] - r[44] <= 1
 mccormick3[45]: x[45] + u[45] - r[45] <= 1
 mccormick3[46]: x[46] + u[46] - r[46] <= 1
 mccormick3[47]: x[47] + u[47] - r[47] <= 1
 mccormick3[48]: x[48] + u[48] - r[48] <= 1
 mccormick3[49]: x[49] + u[49] - r[49] <= 1
Bounds
Binaries
 x[0] x[1] x[2] x[3] x[4] x[5] x[6] x[7] x[8] x[9] x[10] x[11] x[12] x[13]
 x[14] x[15] x[16] x[17] x[18] x[19] x[20] x[21] x[22] x[23] x[24] x[25]
 x[26] x[27] x[28] x[29] x[30] x[31] x[32] x[33] x[34] x[35] x[36] x[37]
 x[38] x[39] x[40] x[41] x[42] x[43] x[44] x[45] x[46] x[47] x[48] x[49]
 u[0] u[1] u[2] u[3] u[4] u[5] u[6] u[7] u[8] u[9] u[10] u[11] u[12] u[13]
 u[14] u[15] u[16] u[17] u[18] u[19] u[20] u[21] u[22] u[23] u[24] u[25]
 u[26] u[27] u[28] u[29] u[30] u[31] u[32] u[33] u[34] u[35] u[36] u[37]
 u[38] u[39] u[40] u[41] u[42] u[43] u[44] u[45] u[46] u[47] u[48] u[49]
 r[0] r[1] r[2] r[3] r[4] r[5] r[6] r[7] r[8] r[9] r[10] r[11] r[12] r[13]
 r[14] r[15] r[16] r[17] r[18] r[19] r[20] r[21] r[22] r[23] r[24] r[25]
 r[26] r[27] r[28] r[29] r[30] r[31] r[32] r[33] r[34] r[35] r[36] r[37]
 r[38] r[39] r[40] r[41] r[42] r[43] r[44] r[45] r[46] r[47] r[48] r[49]
End
