instances/knapsack/discrete/knapsack_50_19.kp
44264
50
240

47 4.7 45
43 4.3 62
93 9.3 15
38 3.8 55
35 3.5 89
61 6.1 48
60 6.0 33
27 2.7 55
48 4.8 30
29 2.9 18
31 3.1 30
2 0.2 54
63 6.3 74
79 7.9 61
16 1.6 10
92 9.2 91
88 8.8 85
79 7.9 65
84 8.4 78
33 3.3 61
96 9.6 37
15 1.5 62
75 7.5 23
58 5.8 35
60 6.0 28
71 7.1 2
97 9.7 15
11 1.1 3
73 7.3 13
2 0.2 64
17 1.7 80
51 5.1 39
23 2.3 63
60 6.0 78
7 0.7 35
100 10.0 20
15 1.5 64
100 10.0 54
23 2.3 14
90 9.0 67
22 2.2 83
41 4.1 81
13 1.3 49
57 5.7 30
2 0.2 82
6 0.6 58
85 8.5 40
73 7.3 72
82 8.2 72
47 4.7 9

3707
294

[5.818509723140746 5.604815526997811 3.3587032028399975 2.279095711775111 5.635476109764223 3.96003297158036 4.534144088927934 2.2104339992205273 1.307418942362951 0.011326477267192304 1.5561279400172188 3.0766304326893805 1.9753843772444264 5.692802927748523 0.7511192778197965 3.6935650825684907 3.082148563760789 1.5855018542189738 2.814283305653612 4.86854308367427 2.66386934468623 5.234363183799726 4.350770894710141 0.028732563186555662 1.1575070980388158 3.1375487741168024 1.3469167741992016 4.822950128599883 1.0601193663586428 4.11389882702587 2.861274028549702 0.7842512540562339 4.975821317521694 1.7474655381054371 1.1443745193561077 2.0530297968266704 0.08540320572367265 1.360433801902996 1.9968998287118254 0.6252314788220664 4.5968798515669524 3.369574841652363 4.646961757323416 5.267036590428898 2.269230290790461 2.9323962730035507 3.335059314506967 3.4439402872757725 3.896470649295458 2.8899651694571706]

[42 71 45 62 83 76 60 46 64 81 66 74 47 47 91 71 64 11 72 5 40 62 31 97 43 87 77 38 76 94 32 82 66 4 79 88 99 79 11 13 86 68 65 100 70 69 48 72 46 95]
